(declare-const X String)
; /\x3e\x0d\x0aSUBJECT\x3a (\d{1,3}\x2e){3}\d{1,3}\x7c[^\r\n]*\x7c\d{2,4}\x0d\x0a/G
(assert (str.in_re X (re.++ (str.to_re "/>\u{d}\u{a}SUBJECT: ") ((_ re.loop 3 3) (re.++ ((_ re.loop 1 3) (re.range "0" "9")) (str.to_re "."))) ((_ re.loop 1 3) (re.range "0" "9")) (str.to_re "|") (re.* (re.union (str.to_re "\u{d}") (str.to_re "\u{a}"))) (str.to_re "|") ((_ re.loop 2 4) (re.range "0" "9")) (str.to_re "\u{d}\u{a}/G\u{a}"))))
; ^(\d){8}$
(assert (str.in_re X (re.++ ((_ re.loop 8 8) (re.range "0" "9")) (str.to_re "\u{a}"))))
; \x2Ftoolbar\x2Fsupremetb\s+wjpropqmlpohj\x2flo\s+resultsmaster\x2Ecom
(assert (str.in_re X (re.++ (str.to_re "/toolbar/supremetb") (re.+ (re.union (str.to_re " ") (str.to_re "\u{9}") (str.to_re "\u{a}") (str.to_re "\u{c}") (str.to_re "\u{d}"))) (str.to_re "wjpropqmlpohj/lo") (re.+ (re.union (str.to_re " ") (str.to_re "\u{9}") (str.to_re "\u{a}") (str.to_re "\u{c}") (str.to_re "\u{d}"))) (str.to_re "resultsmaster.com\u{13}\u{a}"))))
; /onload\s*\x3D\s*[\x22\x27]?location\.reload\s*\x28/smi
(assert (str.in_re X (re.++ (str.to_re "/onload") (re.* (re.union (str.to_re " ") (str.to_re "\u{9}") (str.to_re "\u{a}") (str.to_re "\u{c}") (str.to_re "\u{d}"))) (str.to_re "=") (re.* (re.union (str.to_re " ") (str.to_re "\u{9}") (str.to_re "\u{a}") (str.to_re "\u{c}") (str.to_re "\u{d}"))) (re.opt (re.union (str.to_re "\u{22}") (str.to_re "'"))) (str.to_re "location.reload") (re.* (re.union (str.to_re " ") (str.to_re "\u{9}") (str.to_re "\u{a}") (str.to_re "\u{c}") (str.to_re "\u{d}"))) (str.to_re "(/smi\u{a}"))))
; Toolbar[^\n\r]*User-Agent\x3A\w+Host\x3A.*toX-Mailer\x3aLogsmax-Cookie\x3aAppName
(assert (not (str.in_re X (re.++ (str.to_re "Toolbar") (re.* (re.union (str.to_re "\u{a}") (str.to_re "\u{d}"))) (str.to_re "User-Agent:") (re.+ (re.union (re.range "0" "9") (re.range "A" "Z") (re.range "a" "z") (str.to_re "_"))) (str.to_re "Host:") (re.* re.allchar) (str.to_re "toX-Mailer:\u{13}Logsmax-Cookie:AppName\u{a}")))))
(check-sat)
